50
    45     3     4    39   100    37    68    52    20    96    72    95    21    88    74    84    30    61   100    25    92     5    37    15    67    50    43    43    32    66    38    85    78    63    10    12    12    94    10    81    57    51    57    45    50    67    34    42    47    15
     4     5    10     6     3     5     1    10     3    10     1     7     1     1     7     1     9    10     3    10     4     2     6     2     6     4     8     2     1     5     7     1     1     8     3     8    10     4     4    10     8     2    10     8     1     7     9     4     6     1
  1530   936     0   275     0  1463     0   534   317    73   651   418   336  1211     0   572   994   528     0   970     0   809  1713  1150     0  1542   783  1704  1545     0     0     0  1747     0     0  1685   773  1311   713   897  1553     0   402     0  1389     0     0  1180   198  1700
